! B3LYP D3 def2-TZVP OPT FREQ
%pal
   nprocs 16
end

%maxcore 2000

* xyz 0 1
C   -0.8042   0.8889   0.2677
C   -0.1381   1.2817   -1.0153
C   1.0745   0.8838   -1.3914
C   1.8899   -0.0164   -0.5533
C   1.2492   -0.4273   0.7202
C   0.0410   -0.0304   1.0924
C   -1.0934   2.1677   1.0776
C   -2.1610   0.2001   -0.0476
C   -2.0267   -1.0744   -0.8208
C   -2.4428   -2.2544   -0.3888
O   2.9925   -0.3954   -0.8674
F   1.9800   -1.2409   1.4791
H   -0.7132   1.9467   -1.6546
H   1.5263   1.1981   -2.3236
H   -0.3665   -0.3820   2.0350
H   -1.7390   2.8382   0.5081
H   -0.1672   2.6905   1.3145
H   -1.5994   1.9143   2.0104
H   -2.7692   0.9174   -0.6087
H   -2.6764   0.0086   0.8971
H   -1.5439   -1.0015   -1.7915
H   -2.3201   -3.1508   -0.9821
H   -2.9226   -2.3640   0.5776
*
