! B3LYP D3 def2-TZVP OPT FREQ
%pal
   nprocs 16
end

%maxcore 2000

* xyz 0 1
P   0.9612   -0.0686   0.0808
O   -0.0331   1.0043   -0.5510
O   2.3660   0.3546   -0.4948
O   0.6972   -1.3930   -0.7134
O   0.8616   -0.1247   1.5402
N   -1.9466   -1.0867   0.1705
C   -1.2770   1.2771   0.0882
C   -2.3367   0.2552   -0.2764
H   2.9087   0.7750   0.1811
H   -0.2560   -1.6088   -0.5819
H   -1.7581   -1.0904   1.1697
H   -2.6863   -1.7554   -0.0061
H   -1.1253   1.3069   1.1702
H   -1.5877   2.2631   -0.2540
H   -3.2853   0.5910   0.1576
H   -2.4520   0.2315   -1.3612
*
