! wB97M-D4 def2-TZVP OPT FREQ
%pal
   nprocs 16
end

%maxcore 2000

* xyz 0 1
C   2.6713   0.5495   -0.6824
C   3.9362   0.1625   -0.2562
C   4.1241   -0.9338   0.5752
C   3.0355   -1.6669   1.0183
C   1.7596   -1.2929   0.6292
C   1.5682   -0.2018   -0.2241
C   2.5410   1.7466   -1.5822
C   0.1888   0.1402   -0.6413
C   -1.7072   1.2588   1.2032
C   -0.5193   1.6490   2.0865
C   -2.1230   2.3945   0.2726
C   -2.5821   -0.6266   -0.9072
C   -2.2133   -1.9056   -1.6596
C   -3.9561   -0.7456   -0.2461
O   -0.0676   0.8096   -1.6199
O   -1.1970   -1.4474   1.3451
P   -1.3319   -0.3274   0.3785
H   4.7946   0.7346   -0.5867
H   5.1262   -1.2085   0.8799
H   3.1741   -2.5195   1.6693
H   0.8979   -1.8427   0.9841
H   2.2216   1.4546   -2.5819
H   3.4980   2.2616   -1.6520
H   1.7892   2.4455   -1.2144
H   -2.5474   0.9886   1.8529
H   0.3290   1.9688   1.4755
H   -0.1969   0.8156   2.7114
H   -0.7930   2.4831   2.7340
H   -2.3416   3.2867   0.8625
H   -3.0144   2.1488   -0.3051
H   -1.3254   2.6405   -0.4296
H   -2.5562   0.2229   -1.5918
H   -2.1576   -2.7484   -0.9690
H   -2.9721   -2.1262   -2.4120
H   -1.2531   -1.8107   -2.1690
H   -3.9509   -1.5430   0.4992
H   -4.2592   0.1797   0.2464
H   -4.7091   -0.9866   -0.9981
*
