! wB97M-D4 def2-TZVP OPT FREQ
%pal
   nprocs 16
end

%maxcore 2000

* xyz 0 1
O   2.3129   -0.7045   -1.0842
O   -1.1848   0.4455   1.1921
N   1.7379   0.7883   0.5100
N   -2.3757   -0.0526   -0.6463
N   2.3686   1.8594   -0.1344
N   -3.2647   1.0139   -0.5130
C   0.8184   -1.4527   0.6344
C   -0.5502   -1.5279   -0.0370
C   1.7024   -0.4398   -0.0664
C   -1.3775   -0.2845   0.2366
H   0.9962   1.0369   1.1500
H   -2.5230   -0.6528   -1.4395
H   2.2812   1.7037   -1.1358
H   3.3618   1.8054   0.0679
H   -2.7269   1.8756   -0.5142
H   -3.6987   0.9511   0.4030
H   1.3180   -2.4160   0.5517
H   0.6924   -1.2019   1.6867
H   -0.4379   -1.6844   -1.1118
H   -1.1096   -2.3791   0.3589
*
