! GFN2-XTB OPT NUMFREQ

%pal
   nprocs 16
end

%maxcore 2000

* xyz 0 1
C   -2.7667   -1.6770   -0.6054
C   -1.0875   -1.0571   0.5601
C   -1.6414   0.0963   0.0723
C   0.1498   -1.1883   1.3961
C   1.3775   -0.6762   0.6770
C   2.1398   0.3649   1.1921
C   3.2325   0.8630   0.4910
C   3.5779   0.3174   -0.7355
C   2.8272   -0.7321   -1.2551
C   1.7362   -1.2210   -0.5554
C   -1.2196   1.5261   0.1965
C   -0.3908   1.9718   -1.0130
C   -2.4123   2.4573   0.4152
N   -1.7969   -2.1526   0.1275
N   -2.7181   -0.3215   -0.6746
H   -3.5289   -2.2548   -1.1028
H   0.2681   -2.2461   1.6373
H   0.0360   -0.6521   2.3414
H   1.8711   0.7981   2.1492
H   3.8114   1.6790   0.9047
H   4.4263   0.7043   -1.2847
H   3.0926   -1.1656   -2.2110
H   1.1376   -2.0257   -0.9677
H   -0.5770   1.5772   1.0800
H   -0.9863   1.9062   -1.9270
H   0.4930   1.3444   -1.1345
H   -0.0672   3.0074   -0.8940
H   -3.0176   2.1385   1.2642
H   -3.0540   2.4871   -0.4699
H   -2.0718   3.4773   0.5954
H   -3.3643   0.2722   -1.1658
*
