! GFN2-XTB OPT NUMFREQ

%pal
   nprocs 16
end

%maxcore 2000

* xyz 0 1
Cl   -4.5279   -0.9531   0.2609
O   1.1002   2.5339   0.0140
C   0.9840   1.2950   -0.6615
C   -0.4068   0.7484   -0.4119
C   2.0569   0.3222   -0.2160
C   -0.7754   -0.4641   -0.9887
C   -1.3257   1.4284   0.3747
C   2.8957   -0.2885   -1.1381
C   2.2080   0.0358   1.1393
C   -2.0385   -0.9925   -0.7895
C   -2.5964   0.9069   0.5860
C   3.8752   -1.1815   -0.7170
C   3.1873   -0.8472   1.5613
C   -2.9425   -0.2980   0.0018
C   4.0222   -1.4603   0.6322
H   2.0199   2.8124   -0.0264
H   1.0943   1.4513   -1.7424
H   -0.0606   -1.0087   -1.5954
H   -1.0468   2.3717   0.8219
H   2.7852   -0.0630   -2.1930
H   1.5485   0.5125   1.8551
H   -2.3262   -1.9341   -1.2362
H   -3.3153   1.4331   1.1988
H   4.5242   -1.6530   -1.4436
H   3.2994   -1.0654   2.6155
H   4.7852   -2.1527   0.9633
*
