! GFN2-XTB OPT NUMFREQ

%pal
   nprocs 16
end

%maxcore 2000

* xyz 0 1
S   0.7319   1.3269   -1.1953
C   1.7571   -0.1897   -1.1740
S   0.6204   -1.6168   -1.1369
C   -0.6888   -0.7554   -0.3901
C   -0.6403   0.5807   -0.4014
N   2.7159   -0.2238   -0.1151
C   4.0477   0.0851   -0.2679
C   4.6237   0.0998   0.9697
C   3.6027   -0.2023   1.9142
C   2.4411   -0.3890   1.2203
C   -1.7589   -1.5614   0.2909
O   -1.5806   -2.1294   1.3283
C   -1.6918   1.4134   0.2259
O   -2.5868   0.9825   0.9023
O   -2.8768   -1.5889   -0.4222
C   -3.9850   -2.2172   0.2263
O   -1.5248   2.7060   -0.0595
C   -2.4948   3.5870   0.5073
H   2.2973   -0.2244   -2.1172
H   4.4599   0.2651   -1.2468
H   5.6627   0.2915   1.1780
H   3.7150   -0.2870   2.9819
H   1.4481   -0.6447   1.5528
H   -4.2204   -1.6761   1.1417
H   -4.8086   -2.1623   -0.4781
H   -3.7468   -3.2521   0.4654
H   -2.2086   4.5844   0.1898
H   -3.4889   3.3348   0.1418
H   -2.4824   3.5081   1.5930
*
