! GFN2-XTB OPT NUMFREQ

%pal
   nprocs 16
end

%maxcore 2000

* xyz 0 1
C   -3.0287   -0.7047   -0.4357
C   -2.0697   0.1803   -0.7472
C   -2.0167   1.5673   -0.2707
O   -2.8191   2.0702   0.4877
C   -0.8163   2.3753   -0.7646
C   0.4375   1.9329   -0.0499
C   1.3945   1.2857   -0.7153
C   2.7029   0.7729   -0.1859
C   2.7135   -0.7419   0.0651
C   1.7236   -1.1354   1.1181
C   1.7583   -0.9729   2.4299
H   2.6003   -0.5080   2.9283
H   0.9248   -1.3126   3.0327
C   0.5666   -1.7864   0.4351
O   -0.4621   -2.1601   0.9109
O   0.8583   -1.9090   -0.8786
C   2.2229   -1.5491   -1.1465
H   2.7935   -2.4684   -1.2770
H   2.2498   -0.9790   -2.0719
H   3.7347   -1.0166   0.3296
O   3.7409   1.0033   -1.1285
H   3.6911   1.9187   -1.4207
H   2.9488   1.2568   0.7644
H   1.2479   1.1011   -1.7774
C   0.4517   2.2382   1.4196
H   -0.3110   1.6398   1.9253
H   0.1897   3.2845   1.5887
H   1.4081   2.0288   1.8915
H   -0.7031   2.2382   -1.8409
H   -1.0235   3.4243   -0.5490
H   -1.2478   -0.1436   -1.3769
C   -4.2002   -0.3894   0.4462
H   -4.8936   -1.2290   0.4760
H   -4.7196   0.5075   0.1113
H   -3.8593   -0.1742   1.4606
C   -2.9587   -2.1056   -0.9525
H   -2.9314   -2.7978   -0.1078
H   -2.0728   -2.2759   -1.5605
H   -3.8568   -2.3334   -1.5333
*
