! GFN2-XTB OPT NUMFREQ

%pal
   nprocs 16
end

%maxcore 2000

* xyz 0 1
C   0.4505   0.2316   0.2469
N   -0.1536   0.2142   1.3596
O   -1.5252   0.3831   1.1649
C   -1.8143   0.5758   -0.2339
C   -0.4590   0.4043   -0.9368
H   -0.4445   -0.4937   -1.5572
H   -0.1780   1.2583   -1.5511
C   -2.3463   1.9362   -0.4185
N   -2.7543   2.9917   -0.5989
C   -2.8322   -0.5039   -0.6733
C   -4.2714   -0.2866   -0.1955
C   -4.4109   -0.2037   1.3226
H   -3.8758   0.6462   1.7438
H   -5.4644   -0.1064   1.5864
H   -4.0386   -1.1109   1.8048
C   -5.1572   -1.3925   -0.7632
H   -6.2009   -1.2123   -0.5051
H   -5.0810   -1.4471   -1.8507
H   -4.8653   -2.3615   -0.3569
H   -4.5954   0.6678   -0.6222
O   -2.2957   -1.7501   -0.2977
H   -2.1557   -1.7300   0.6583
H   -2.8390   -0.5002   -1.7674
C   1.9146   0.0395   0.1380
C   2.7535   1.1551   0.0657
C   4.1185   0.9488   -0.0840
C   4.6591   -0.3303   -0.1625
C   3.7999   -1.4194   -0.0850
C   2.4276   -1.2574   0.0677
C   1.5205   -2.4523   0.1858
H   1.1506   -2.5487   1.2085
H   2.0506   -3.3669   -0.0738
H   0.6447   -2.3681   -0.4608
H   4.2069   -2.4229   -0.1442
C   6.1437   -0.5266   -0.2963
H   6.5909   0.2566   -0.9080
H   6.6240   -0.4936   0.6841
H   6.3752   -1.4910   -0.7467
H   4.7773   1.8086   -0.1400
C   2.1904   2.5458   0.1754
H   1.7008   2.6899   1.1398
H   1.4420   2.7409   -0.5960
H   2.9766   3.2914   0.0735
*
