! GFN2-XTB OPT NUMFREQ

%pal
   nprocs 16
end

%maxcore 2000

* xyz 0 1
C   -2.6567   -0.5291   0.3508
C   -3.5565   -0.9997   1.2471
C   -4.6242   -1.5489   0.4787
C   -4.2850   -1.3654   -0.8199
C   -1.3729   0.1540   0.5507
C   0.1475   2.6778   -0.3294
C   1.6522   0.9938   -0.1362
C   2.2342   -0.3497   -0.1177
C   1.8234   -1.3375   -1.0094
C   2.4224   -2.5880   -0.9810
C   3.4308   -2.8583   -0.0674
C   3.8440   -1.8724   0.8201
C   3.2483   -0.6232   0.7985
O   -0.9223   0.4074   1.6374
O   -3.0905   -0.7473   -0.9178
O   -0.8825   3.2829   -0.4946
N   2.2886   2.0650   0.1960
N   -0.6902   0.4367   -0.6262
N   1.3865   3.0850   0.0579
N   0.3598   1.3034   -0.5295
H   -3.4544   -0.9486   2.3173
H   -5.5233   -2.0147   0.8429
H   -4.7687   -1.6088   -1.7497
H   1.0459   -1.1278   -1.7304
H   2.1025   -3.3512   -1.6781
H   3.8942   -3.8360   -0.0458
H   4.6287   -2.0806   1.5354
H   3.5541   0.1522   1.4878
H   -1.2162   0.4959   -1.4866
H   1.6402   4.0231   0.3107
*
