! GFN2-XTB OPT NUMFREQ

%pal
   nprocs 16
end

%maxcore 2000

* xyz 0 1
C   -0.3714   0.6675   0.6315
C   -0.9028   1.8635   0.1834
C   -2.1886   1.8966   -0.3561
C   -2.9461   0.7506   -0.4609
C   -2.4134   -0.4713   -0.0100
C   -1.1408   -0.4983   0.5343
H   -0.7253   -1.4227   0.9116
O   -3.2083   -1.5598   -0.1503
C   -2.6822   -2.8052   0.2545
H   -3.4521   -3.5421   0.0429
H   -1.7766   -3.0503   -0.3072
H   -2.4508   -2.8112   1.3226
O   -4.1813   0.8006   -1.0415
C   -5.2620   0.6408   -0.1340
H   -6.1737   0.6996   -0.7240
H   -5.2123   -0.3255   0.3692
H   -5.2549   1.4437   0.6085
H   -2.6174   2.8216   -0.7199
H   -0.3297   2.7774   0.2338
C   1.0193   0.5251   1.2367
C   1.7885   1.8349   1.4425
C   2.3382   2.4039   0.1642
C   2.2164   3.6774   -0.1846
H   2.6420   4.0538   -1.1067
H   1.6898   4.3865   0.4438
C   3.0654   1.3939   -0.6726
C   2.2476   0.1139   -0.8749
N   1.8281   -0.4066   0.4319
C   1.8830   -1.7137   0.8253
O   1.4146   -2.0958   1.8845
C   2.5442   -2.7042   -0.1126
C   2.4513   -2.2879   -1.5710
C   3.0404   -0.8952   -1.6924
H   4.0760   -0.9145   -1.3374
H   3.0606   -0.5491   -2.7269
H   2.9820   -2.9964   -2.2076
H   1.4055   -2.2806   -1.8930
H   2.0744   -3.6654   0.0880
H   3.5927   -2.7917   0.1869
H   1.3327   0.3723   -1.4250
H   3.3292   1.8133   -1.6452
H   3.9943   1.1100   -0.1641
H   1.1593   2.5603   1.9587
H   2.6306   1.6035   2.1023
H   0.9059   0.0415   2.2051
*
