! GFN2-XTB OPT NUMFREQ

%pal
   nprocs 16
end

%maxcore 2000

* xyz 0 1
C   -2.9884   -0.0441   0.1342
C   -2.2083   -0.5019   -0.9235
C   -0.9088   -0.0500   -1.0564
C   -0.4090   0.8637   -0.1345
C   -1.1814   1.3207   0.9192
C   -2.4847   0.8572   1.0564
C   -4.3967   -0.5628   0.2503
C   1.1837   2.4879   -1.7373
C   2.5454   -0.7383   0.2254
C   2.0367   -2.0400   -0.3866
C   4.0595   -0.7295   0.4867
C   4.4656   0.5443   1.2196
C   4.5059   -1.9613   1.2696
O   2.6016   -2.2669   -1.6587
O   1.5207   2.2610   0.8602
N   2.2200   0.3387   -0.7342
S   1.2822   1.4460   -0.3129
F   -5.1114   -0.2759   -0.8451
F   -5.0441   -0.0458   1.2957
F   -4.4158   -1.8941   0.3854
H   -2.6179   -1.2133   -1.6292
H   -0.2746   -0.4138   -1.8562
H   -0.7562   2.0240   1.6223
H   -3.1024   1.1971   1.8758
H   2.1869   2.8834   -1.8835
H   0.8699   1.9036   -2.5974
H   0.4787   3.2850   -1.5124
H   2.0357   -0.5986   1.1901
H   2.2946   -2.8927   0.2407
H   0.9429   -1.9959   -0.4482
H   4.5457   -0.7436   -0.4927
H   5.5476   0.5803   1.3536
H   4.1554   1.4366   0.6780
H   4.0020   0.5799   2.2095
H   5.5507   -1.8600   1.5657
H   3.9150   -2.0783   2.1830
H   4.4151   -2.8738   0.6811
H   2.6037   -1.4126   -2.1094
*
