! GFN2-XTB OPT NUMFREQ

%pal
   nprocs 16
end

%maxcore 2000

* xyz 0 1
N   0.0293   -0.1881   -0.2336
C   0.1389   1.1258   -0.2142
N   -1.0896   1.7223   0.0013
C   -1.4430   3.0448   0.0930
C   -2.7449   3.3524   0.3106
C   -3.7197   2.3284   0.4403
C   -3.3637   1.0162   0.3476
C   -2.0098   0.7003   0.1210
C   -1.2628   -0.4789   -0.0328
C   1.3860   1.8437   -0.3953
O   1.4990   3.0475   -0.3679
C   -1.8308   -1.8330   0.0201
O   -3.0062   -2.0416   0.2039
C   2.6002   0.9530   -0.6762
O   3.0014   0.7402   -1.7818
O   -0.9214   -2.7858   -0.1546
C   -1.4173   -4.1309   -0.1215
C   -0.2418   -5.0495   -0.3465
O   3.1371   0.5082   0.4506
C   4.2843   -0.3480   0.2983
C   4.7232   -0.7640   1.6796
H   -0.6407   3.7562   -0.0178
H   -3.0277   4.3923   0.3831
H   -4.7524   2.5986   0.6136
H   -4.0686   0.2034   0.4385
H   -2.1794   -4.2415   -0.8942
H   -1.8960   -4.3037   0.8434
H   0.5067   -4.9129   0.4332
H   -0.5760   -6.0867   -0.3302
H   0.2229   -4.8483   -1.3110
H   5.0588   0.2053   -0.2337
H   3.9929   -1.1993   -0.3177
H   4.9920   0.1068   2.2767
H   5.5928   -1.4169   1.6076
H   3.9251   -1.3028   2.1889
*
