! GFN2-XTB OPT NUMFREQ

%pal
   nprocs 16
end

%maxcore 2000

* xyz 0 1
C   2.4192   0.2119   -0.3680
C   2.5440   -1.1678   -0.6040
C   3.5132   -1.9157   0.0431
C   4.3843   -1.3329   0.9521
C   4.2589   0.0242   1.2060
C   3.2943   0.7872   0.5680
N   1.4864   0.9931   -1.0387
C   1.1898   2.3087   -0.5101
C   0.3992   0.3531   -1.7618
C   -0.6579   -0.1982   -0.8467
C   -1.9272   0.1782   -0.8665
C   -2.9554   -0.3240   0.0995
O   -4.0681   -0.7188   -0.6213
C   -5.0789   -1.3071   0.1716
O   -3.3499   0.6948   0.9947
C   -2.4118   0.9416   2.0140
H   -0.3230   -0.9265   -0.1106
H   -2.2915   0.9111   -1.5814
H   1.8822   -1.6726   -1.2918
H   3.5798   -2.9759   -0.1673
H   5.1370   -1.9239   1.4551
H   4.9192   0.5055   1.9166
H   3.2310   1.8401   0.7982
H   2.0546   2.9679   -0.5991
H   0.3769   2.7438   -1.0875
H   0.8852   2.2794   0.5434
H   -0.0436   1.0932   -2.4292
H   0.8084   -0.4295   -2.4010
H   -2.5545   -1.1683   0.6888
H   -5.8414   -1.6738   -0.5115
H   -4.6768   -2.1482   0.7477
H   -5.5161   -0.5802   0.8568
H   -2.2218   0.0369   2.6033
H   -1.4602   1.2998   1.6085
H   -2.8357   1.7061   2.6610
*
