! GFN2-XTB OPT NUMFREQ

%pal
   nprocs 16
end

%maxcore 2000

* xyz 0 1
C   -1.1569   -0.9741   0.3556
C   -0.2499   0.0635   0.2855
C   -0.6744   1.3458   -0.0440
C   -2.0081   1.6152   -0.3072
C   -2.9301   0.5847   -0.2413
C   -2.5022   -0.7086   0.0908
C   1.7178   1.4598   0.2884
C   0.4722   2.2754   -0.0527
C   1.2447   0.0134   0.5332
C   1.9302   -1.0073   -0.3659
C   3.3984   -1.1384   -0.0588
C   -4.7079   -1.5703   -0.0716
O   0.4450   3.4559   -0.2871
O   -3.3328   -1.7695   0.1798
O   4.0177   -1.9566   -0.9282
O   3.9730   -0.6016   0.8460
H   -0.8726   -1.9864   0.6148
H   -2.3144   2.6226   -0.5603
H   -3.9716   0.7838   -0.4449
H   2.2169   1.8952   1.1528
H   2.4194   1.5332   -0.5454
H   1.4344   -0.2707   1.5704
H   1.8206   -0.7398   -1.4202
H   1.4865   -2.0005   -0.2582
H   -5.1394   -0.8596   0.6373
H   -4.8747   -1.2146   -1.0913
H   -5.1806   -2.5400   0.0552
H   4.9488   -2.0031   -0.6666
*
