! GFN2-XTB OPT NUMFREQ

%pal
   nprocs 16
end

%maxcore 2000

* xyz 0 1
C   -2.0537   0.5270   -0.0000
C   0.1056   -0.5118   0.0000
C   1.3522   1.2981   0.0000
C   2.1176   0.1511   0.0000
C   3.5805   0.0417   0.0000
C   4.1832   -1.2152   -0.0000
C   5.5646   -1.3313   -0.0000
C   6.3648   -0.1971   0.0000
C   5.7713   1.0588   0.0000
C   4.3913   1.1770   0.0000
C   -4.4265   -0.0095   -0.0001
C   -6.7475   -0.1837   0.0001
O   -4.3017   -1.2051   -0.0000
O   -5.5858   0.6500   -0.0000
N   1.3211   -0.9770   0.0000
N   -3.3845   0.8814   -0.0001
N   0.0613   0.8448   0.0000
N   -1.1533   1.4491   0.0000
S   -1.5166   -1.1425   -0.0000
H   1.5878   2.3458   0.0000
H   3.5518   -2.0933   -0.0000
H   6.0190   -2.3139   -0.0000
H   7.4430   -0.2896   -0.0000
H   6.3864   1.9495   0.0000
H   3.9416   2.1623   0.0000
H   -6.7577   -0.8127   0.8882
H   -7.5935   0.4958   0.0002
H   -6.7578   -0.8128   -0.8879
H   -3.5869   1.8703   -0.0001
*
