! GFN2-XTB OPT NUMFREQ

%pal
   nprocs 16
end

%maxcore 2000

* xyz 0 1
C   2.8579   -1.0871   -0.5525
C   1.5943   -0.5646   -0.3467
C   1.3982   0.6504   0.2800
C   2.4700   1.4091   0.7095
C   3.7471   0.8955   0.5091
C   3.9408   -0.3387   -0.1104
C   -0.0753   0.9592   0.3475
C   0.2687   -1.1279   -0.7173
C   -2.0756   -0.5221   -0.3001
C   -2.5753   -0.7682   1.1270
C   -1.7358   -1.8043   1.8620
C   -2.9422   0.4811   -1.0446
O   -3.0471   1.6863   -0.2852
O   -0.3231   2.1888   -0.2675
O   0.0310   -2.2008   -1.2233
N   -0.6628   -0.1851   -0.3403
H   2.9822   -2.0430   -1.0445
H   2.3210   2.3737   1.1769
H   4.6079   1.4639   0.8371
H   4.9472   -0.7108   -0.2511
H   -0.4365   0.9770   1.3848
H   -2.1408   -1.4606   -0.8576
H   -2.5966   0.1729   1.6799
H   -3.6137   -1.1033   1.0587
H   -2.1559   -2.0216   2.8438
H   -1.6801   -2.7357   1.2964
H   -0.7130   -1.4517   2.0099
H   -2.5031   0.6850   -2.0246
H   -3.9368   0.0465   -1.1790
H   -3.6861   2.2698   -0.7032
H   -1.2786   2.3459   -0.2181
*
