! GFN2-XTB OPT NUMFREQ

%pal
   nprocs 16
end

%maxcore 2000

* xyz 0 1
C   -4.4764   -1.7098   -1.1014
C   -4.4277   -0.3986   -1.5433
C   -3.3934   0.4292   -1.1303
C   -2.3909   -0.0261   -0.2836
C   -2.4777   -1.3411   0.1746
C   -3.5026   -2.1795   -0.2336
C   -1.2906   0.9244   0.1955
C   -0.9283   2.3429   -1.7100
C   -2.6120   1.4895   2.0910
C   0.1083   0.3451   -0.1867
C   1.2341   2.2226   1.0166
C   2.4889   0.3160   0.1099
C   2.6522   -1.0660   0.1950
C   3.8901   -1.6386   -0.0295
C   4.9632   -0.8203   -0.3330
C   4.8334   0.5481   -0.4160
C   3.5844   1.1146   -0.1942
O   0.1619   -0.5415   -1.0082
O   -1.3520   1.0890   1.5740
O   -1.4331   2.2008   -0.3919
N   1.2191   0.9051   0.3860
F   6.1655   -1.3770   -0.5467
Cl   -1.3400   -1.9828   1.3169
H   -5.2737   -2.3688   -1.4185
H   -5.1919   -0.0152   -2.2060
H   -3.3687   1.4595   -1.4566
H   -3.5306   -3.1941   0.1386
H   -1.2395   1.5195   -2.3564
H   -1.3247   3.2812   -2.0918
H   0.1650   2.3867   -1.7100
H   -3.3284   0.6658   2.0552
H   -2.4361   1.7700   3.1265
H   -3.0078   2.3450   1.5415
H   0.2730   2.4390   1.4598
H   1.4708   3.0046   0.2899
H   1.9978   2.2238   1.7927
H   1.8017   -1.6888   0.4320
H   4.0351   -2.7083   0.0327
H   5.6953   1.1563   -0.6529
H   3.4761   2.1879   -0.2632
*
