! GFN2-XTB OPT NUMFREQ

%pal
   nprocs 16
end

%maxcore 2000

* xyz 0 1
C   -1.6063   0.1354   0.0002
C   0.7316   0.2976   0.0001
C   1.9426   -0.6071   -0.0000
C   3.2322   0.2039   -0.0001
O   -0.4352   -0.5293   0.0002
O   -1.7076   1.3357   -0.0001
N   -2.6451   -0.7362   -0.0001
H   0.7130   0.9425   0.8813
H   0.7129   0.9425   -0.8811
H   1.9009   -1.2552   -0.8779
H   1.9010   -1.2553   0.8779
H   3.2930   0.8445   -0.8817
H   4.1050   -0.4479   -0.0002
H   3.2932   0.8444   0.8815
H   -3.5766   -0.3656   -0.0005
H   -2.4857   -1.7262   -0.0002
*
