! GFN2-XTB OPT NUMFREQ

%pal
   nprocs 16
end

%maxcore 2000

* xyz 0 1
C   -2.4522   0.0456   -0.0005
C   -1.2716   -0.8449   0.0001
C   -0.1466   -0.1120   0.0001
C   -0.4402   1.3895   -0.0002
C   -1.9565   1.4805   -0.0010
C   1.4372   2.4443   -0.7693
C   1.4363   2.4449   0.7704
C   1.5706   -1.7688   0.0001
C   3.0274   -1.7879   -0.0004
C   4.2223   -1.8272   -0.0008
O   -3.5980   -0.3083   -0.0007
O   0.1288   2.0084   1.1205
O   0.1299   2.0081   -1.1205
O   1.1475   -0.4013   0.0005
Cl   -1.5046   -2.5428   0.0006
H   -2.3131   2.0003   -0.8886
H   -2.3140   2.0013   0.8857
H   2.1863   1.7606   -1.1694
H   1.5803   3.4361   -1.1947
H   1.5785   3.4370   1.1953
H   2.1852   1.7618   1.1719
H   1.1817   -2.2723   -0.8860
H   1.1823   -2.2727   0.8862
H   5.2858   -1.8628   -0.0011
*
